% seed = 8726665

mint = 64;
% maxt = 220;

nActs = 42;
dur = [0,1,8,1,4,9,10,8,3,4,8,5,2,1,8,5,1,9,6,4,9,8,7,5,5,1,10,8,2,9,6,10,8,4,9,3,7,6,3,2,1,0];

nSkills = 4;
sreq = [| 0,0,0,0,
	| 3,4,4,0,
	| 3,5,0,5,
	| 2,0,4,2,
	| 3,5,6,0,
	| 3,5,0,4,
	| 4,4,0,5,
	| 2,3,0,4,
	| 6,6,0,3,
	| 2,0,2,5,
	| 7,0,2,3,
	| 2,0,4,5,
	| 2,3,0,4,
	| 0,4,6,4,
	| 0,5,7,2,
	| 7,2,0,4,
	| 3,3,0,4,
	| 5,7,4,0,
	| 0,5,5,2,
	| 4,5,0,6,
	| 4,2,4,0,
	| 3,4,6,0,
	| 4,0,3,5,
	| 0,2,2,2,
	| 3,4,0,6,
	| 3,0,3,5,
	| 0,4,2,6,
	| 4,5,0,6,
	| 2,0,4,3,
	| 4,2,6,0,
	| 5,4,0,4,
	| 5,7,0,3,
	| 2,4,2,0,
	| 7,5,0,3,
	| 6,1,0,3,
	| 3,3,0,2,
	| 2,2,4,0,
	| 3,5,0,7,
	| 0,7,6,3,
	| 6,2,7,0,
	| 7,3,0,4,
	| 0,0,0,0, |];

nResources = 38;
mastery = [| true,false,false,false,
	| false,false,false,true,
	| true,true,false,true,
	| true,false,false,false,
	| false,false,false,true,
	| false,true,true,true,
	| true,false,false,false,
	| true,false,true,false,
	| false,true,false,false,
	| true,false,true,true,
	| true,false,false,true,
	| true,false,true,true,
	| false,false,false,true,
	| true,false,false,true,
	| true,true,false,true,
	| true,true,false,true,
	| false,true,true,false,
	| false,false,false,true,
	| false,true,false,false,
	| true,true,false,true,
	| false,true,true,true,
	| true,false,true,true,
	| true,false,false,true,
	| true,false,false,false,
	| false,true,true,false,
	| false,true,true,true,
	| false,true,true,false,
	| false,false,false,true,
	| false,true,false,false,
	| true,false,true,true,
	| true,true,false,false,
	| true,true,true,false,
	| false,false,true,true,
	| false,false,true,false,
	| false,true,true,true,
	| true,false,false,false,
	| true,false,true,false,
	| false,true,false,false, |];

nPrecs = 85;
pred = [1,1,1,2,2,3,3,3,4,4,5,5,5,6,6,6,7,7,7,8,8,8,9,9,10,10,11,11,12,12,13,13,13,14,14,14,15,15,15,16,16,16,17,17,17,18,18,18,19,20,20,21,21,22,22,22,23,23,24,24,25,25,25,26,26,26,27,28,29,29,29,30,31,32,33,34,35,35,36,37,37,38,39,40,41];
succ = [2,3,4,41,11,41,9,28,11,5,6,7,16,9,19,12,9,13,8,10,12,18,20,21,25,15,20,24,29,40,19,14,31,20,35,28,17,22,23,27,23,32,26,21,29,25,19,30,26,27,39,34,35,33,26,24,33,31,34,32,33,27,37,35,28,37,40,34,30,31,32,38,37,36,36,40,36,38,39,41,38,39,42,42,42];

nUnrels = 381;
unpred = [2,2,2,2,2,2,2,2,2,2,2,2,2,2,2,2,2,2,2,2,2,2,2,2,2,2,2,2,2,3,3,3,3,3,3,3,3,3,3,3,3,3,3,3,3,3,3,3,3,3,3,3,3,3,3,5,6,6,6,6,6,6,6,6,6,6,6,6,6,6,6,7,7,8,8,8,8,8,8,9,9,9,9,9,9,9,9,9,9,9,9,9,9,9,9,9,9,9,9,9,9,9,10,10,10,10,10,10,10,10,11,11,11,11,11,11,11,11,11,11,11,11,11,11,11,11,11,11,11,11,11,11,12,12,12,12,12,12,12,12,12,12,12,12,12,12,12,12,12,12,12,13,13,13,13,13,13,13,13,13,13,13,13,13,14,14,14,14,14,14,14,14,14,14,14,14,14,14,14,14,14,14,15,15,15,15,15,15,16,16,16,16,16,16,16,16,16,16,16,16,16,16,17,17,17,17,17,17,17,17,17,18,18,18,18,18,18,18,18,19,19,19,19,19,19,19,19,19,19,19,19,20,20,20,20,20,20,20,20,20,20,20,20,20,20,20,20,20,20,21,21,21,21,21,21,21,21,21,21,21,21,21,21,22,22,22,22,22,22,23,23,23,23,23,23,23,23,23,23,23,24,24,24,24,24,24,24,24,24,24,24,24,25,25,25,25,25,25,25,25,26,26,26,26,26,26,27,27,27,27,27,27,27,27,27,27,27,27,27,28,28,28,28,28,28,28,28,28,28,28,29,29,29,29,30,30,30,30,30,30,30,30,30,31,31,31,31,31,31,32,32,32,32,32,32,32,33,33,33,33,33,33,34,34,34,34,34,34,35,35,35,36,36,36,36,37,38,38,39,39,40];
unsucc = [3,4,5,6,7,8,9,10,12,13,14,15,16,17,18,19,21,22,23,25,26,28,29,30,31,33,35,37,38,4,5,6,7,8,10,11,12,13,14,15,16,17,18,19,22,23,24,25,26,29,30,31,32,33,37,11,7,8,10,11,13,14,15,16,17,18,22,23,24,25,33,11,16,9,11,13,14,16,20,10,11,12,13,14,15,16,17,18,19,22,23,24,25,26,28,29,30,31,32,33,37,41,11,12,13,14,16,18,19,20,12,13,14,15,16,17,18,19,21,22,23,25,26,28,29,30,31,33,35,37,38,41,13,14,15,16,17,18,19,20,21,22,23,24,25,26,27,28,33,34,35,15,16,17,18,21,22,23,24,25,29,30,32,33,15,16,17,18,19,21,22,23,24,25,26,29,30,31,32,33,37,41,16,18,19,20,25,27,17,18,19,20,21,22,24,25,26,28,29,30,34,35,18,19,20,22,23,24,25,27,33,20,21,22,23,24,29,31,32,20,21,22,23,24,25,27,29,30,31,32,33,21,22,23,24,25,26,28,29,30,31,32,33,34,35,36,37,38,41,22,23,24,25,26,27,28,29,30,31,32,33,37,41,23,25,27,29,30,31,24,25,26,27,28,29,30,32,34,35,40,25,26,27,28,29,30,31,33,35,37,38,41,26,28,29,30,31,32,34,35,27,29,30,31,32,33,28,29,30,31,32,33,34,35,36,37,38,39,41,29,30,31,32,33,35,36,37,38,39,41,33,34,35,40,31,32,33,34,35,36,37,40,41,32,33,34,35,36,40,33,34,35,37,38,40,41,34,35,37,38,40,41,35,36,37,38,39,41,37,40,41,37,38,40,41,40,40,41,40,41,41];

USEFUL_RES = [{},
	{1,3,4,6,7,8,9,10,11,12,14,15,16,17,19,20,21,22,23,24,25,26,27,29,30,31,32,33,34,35,36,37,38},
	{1,2,3,4,5,6,7,8,9,10,11,12,13,14,15,16,17,18,19,20,21,22,23,24,25,26,27,28,29,30,31,32,33,35,36,37,38},
	{1,2,3,4,5,6,7,8,10,11,12,13,14,15,16,17,18,20,21,22,23,24,25,26,27,28,30,31,32,33,34,35,36,37},
	{1,3,4,6,7,8,9,10,11,12,14,15,16,17,19,20,21,22,23,24,25,26,27,29,30,31,32,33,34,35,36,37,38},
	{1,2,3,4,5,6,7,8,9,10,11,12,13,14,15,16,17,18,19,20,21,22,23,24,25,26,27,28,29,30,31,32,33,35,36,37,38},
	{1,2,3,4,5,6,7,8,9,10,11,12,13,14,15,16,17,18,19,20,21,22,23,24,25,26,27,28,29,30,31,32,33,35,36,37,38},
	{1,2,3,4,5,6,7,8,9,10,11,12,13,14,15,16,17,18,19,20,21,22,23,24,25,26,27,28,29,30,31,32,33,35,36,37,38},
	{1,2,3,4,5,6,7,8,9,10,11,12,13,14,15,16,17,18,19,20,21,22,23,24,25,26,27,28,29,30,31,32,33,35,36,37,38},
	{1,2,3,4,5,6,7,8,10,11,12,13,14,15,16,17,18,20,21,22,23,24,25,26,27,28,30,31,32,33,34,35,36,37},
	{1,2,3,4,5,6,7,8,10,11,12,13,14,15,16,17,18,20,21,22,23,24,25,26,27,28,30,31,32,33,34,35,36,37},
	{1,2,3,4,5,6,7,8,10,11,12,13,14,15,16,17,18,20,21,22,23,24,25,26,27,28,30,31,32,33,34,35,36,37},
	{1,2,3,4,5,6,7,8,9,10,11,12,13,14,15,16,17,18,19,20,21,22,23,24,25,26,27,28,29,30,31,32,33,35,36,37,38},
	{2,3,5,6,8,9,10,11,12,13,14,15,16,17,18,19,20,21,22,23,25,26,27,28,29,30,31,32,33,34,35,37,38},
	{2,3,5,6,8,9,10,11,12,13,14,15,16,17,18,19,20,21,22,23,25,26,27,28,29,30,31,32,33,34,35,37,38},
	{1,2,3,4,5,6,7,8,9,10,11,12,13,14,15,16,17,18,19,20,21,22,23,24,25,26,27,28,29,30,31,32,33,35,36,37,38},
	{1,2,3,4,5,6,7,8,9,10,11,12,13,14,15,16,17,18,19,20,21,22,23,24,25,26,27,28,29,30,31,32,33,35,36,37,38},
	{1,3,4,6,7,8,9,10,11,12,14,15,16,17,19,20,21,22,23,24,25,26,27,29,30,31,32,33,34,35,36,37,38},
	{2,3,5,6,8,9,10,11,12,13,14,15,16,17,18,19,20,21,22,23,25,26,27,28,29,30,31,32,33,34,35,37,38},
	{1,2,3,4,5,6,7,8,9,10,11,12,13,14,15,16,17,18,19,20,21,22,23,24,25,26,27,28,29,30,31,32,33,35,36,37,38},
	{1,3,4,6,7,8,9,10,11,12,14,15,16,17,19,20,21,22,23,24,25,26,27,29,30,31,32,33,34,35,36,37,38},
	{1,3,4,6,7,8,9,10,11,12,14,15,16,17,19,20,21,22,23,24,25,26,27,29,30,31,32,33,34,35,36,37,38},
	{1,2,3,4,5,6,7,8,10,11,12,13,14,15,16,17,18,20,21,22,23,24,25,26,27,28,30,31,32,33,34,35,36,37},
	{2,3,5,6,8,9,10,11,12,13,14,15,16,17,18,19,20,21,22,23,25,26,27,28,29,30,31,32,33,34,35,37,38},
	{1,2,3,4,5,6,7,8,9,10,11,12,13,14,15,16,17,18,19,20,21,22,23,24,25,26,27,28,29,30,31,32,33,35,36,37,38},
	{1,2,3,4,5,6,7,8,10,11,12,13,14,15,16,17,18,20,21,22,23,24,25,26,27,28,30,31,32,33,34,35,36,37},
	{2,3,5,6,8,9,10,11,12,13,14,15,16,17,18,19,20,21,22,23,25,26,27,28,29,30,31,32,33,34,35,37,38},
	{1,2,3,4,5,6,7,8,9,10,11,12,13,14,15,16,17,18,19,20,21,22,23,24,25,26,27,28,29,30,31,32,33,35,36,37,38},
	{1,2,3,4,5,6,7,8,10,11,12,13,14,15,16,17,18,20,21,22,23,24,25,26,27,28,30,31,32,33,34,35,36,37},
	{1,3,4,6,7,8,9,10,11,12,14,15,16,17,19,20,21,22,23,24,25,26,27,29,30,31,32,33,34,35,36,37,38},
	{1,2,3,4,5,6,7,8,9,10,11,12,13,14,15,16,17,18,19,20,21,22,23,24,25,26,27,28,29,30,31,32,33,35,36,37,38},
	{1,2,3,4,5,6,7,8,9,10,11,12,13,14,15,16,17,18,19,20,21,22,23,24,25,26,27,28,29,30,31,32,33,35,36,37,38},
	{1,3,4,6,7,8,9,10,11,12,14,15,16,17,19,20,21,22,23,24,25,26,27,29,30,31,32,33,34,35,36,37,38},
	{1,2,3,4,5,6,7,8,9,10,11,12,13,14,15,16,17,18,19,20,21,22,23,24,25,26,27,28,29,30,31,32,33,35,36,37,38},
	{1,2,3,4,5,6,7,8,9,10,11,12,13,14,15,16,17,18,19,20,21,22,23,24,25,26,27,28,29,30,31,32,33,35,36,37,38},
	{1,2,3,4,5,6,7,8,9,10,11,12,13,14,15,16,17,18,19,20,21,22,23,24,25,26,27,28,29,30,31,32,33,35,36,37,38},
	{1,3,4,6,7,8,9,10,11,12,14,15,16,17,19,20,21,22,23,24,25,26,27,29,30,31,32,33,34,35,36,37,38},
	{1,2,3,4,5,6,7,8,9,10,11,12,13,14,15,16,17,18,19,20,21,22,23,24,25,26,27,28,29,30,31,32,33,35,36,37,38},
	{2,3,5,6,8,9,10,11,12,13,14,15,16,17,18,19,20,21,22,23,25,26,27,28,29,30,31,32,33,34,35,37,38},
	{1,3,4,6,7,8,9,10,11,12,14,15,16,17,19,20,21,22,23,24,25,26,27,29,30,31,32,33,34,35,36,37,38},
	{1,2,3,4,5,6,7,8,9,10,11,12,13,14,15,16,17,18,19,20,21,22,23,24,25,26,27,28,29,30,31,32,33,35,36,37,38},
	{}];

POTENTIAL_ACT = [{2,3,4,5,6,7,8,9,10,11,12,13,16,17,18,20,21,22,23,25,26,28,29,30,31,32,33,34,35,36,37,38,40,41},
	{3,4,6,7,8,9,10,11,12,13,14,15,16,17,19,20,23,24,25,26,27,28,29,31,32,34,35,36,38,39,41},
	{2,3,4,5,6,7,8,9,10,11,12,13,14,15,16,17,18,19,20,21,22,23,24,25,26,27,28,29,30,31,32,33,34,35,36,37,38,39,40,41},
	{2,3,4,5,6,7,8,9,10,11,12,13,16,17,18,20,21,22,23,25,26,28,29,30,31,32,33,34,35,36,37,38,40,41},
	{3,4,6,7,8,9,10,11,12,13,14,15,16,17,19,20,23,24,25,26,27,28,29,31,32,34,35,36,38,39,41},
	{2,3,4,5,6,7,8,9,10,11,12,13,14,15,16,17,18,19,20,21,22,23,24,25,26,27,28,29,30,31,32,33,34,35,36,37,38,39,40,41},
	{2,3,4,5,6,7,8,9,10,11,12,13,16,17,18,20,21,22,23,25,26,28,29,30,31,32,33,34,35,36,37,38,40,41},
	{2,3,4,5,6,7,8,9,10,11,12,13,14,15,16,17,18,19,20,21,22,23,24,25,26,27,28,29,30,31,32,33,34,35,36,37,38,39,40,41},
	{2,3,5,6,7,8,9,13,14,15,16,17,18,19,20,21,22,24,25,27,28,30,31,32,33,34,35,36,37,38,39,40,41},
	{2,3,4,5,6,7,8,9,10,11,12,13,14,15,16,17,18,19,20,21,22,23,24,25,26,27,28,29,30,31,32,33,34,35,36,37,38,39,40,41},
	{2,3,4,5,6,7,8,9,10,11,12,13,14,15,16,17,18,19,20,21,22,23,24,25,26,27,28,29,30,31,32,33,34,35,36,37,38,39,40,41},
	{2,3,4,5,6,7,8,9,10,11,12,13,14,15,16,17,18,19,20,21,22,23,24,25,26,27,28,29,30,31,32,33,34,35,36,37,38,39,40,41},
	{3,4,6,7,8,9,10,11,12,13,14,15,16,17,19,20,23,24,25,26,27,28,29,31,32,34,35,36,38,39,41},
	{2,3,4,5,6,7,8,9,10,11,12,13,14,15,16,17,18,19,20,21,22,23,24,25,26,27,28,29,30,31,32,33,34,35,36,37,38,39,40,41},
	{2,3,4,5,6,7,8,9,10,11,12,13,14,15,16,17,18,19,20,21,22,23,24,25,26,27,28,29,30,31,32,33,34,35,36,37,38,39,40,41},
	{2,3,4,5,6,7,8,9,10,11,12,13,14,15,16,17,18,19,20,21,22,23,24,25,26,27,28,29,30,31,32,33,34,35,36,37,38,39,40,41},
	{2,3,4,5,6,7,8,9,10,11,12,13,14,15,16,17,18,19,20,21,22,23,24,25,26,27,28,29,30,31,32,33,34,35,36,37,38,39,40,41},
	{3,4,6,7,8,9,10,11,12,13,14,15,16,17,19,20,23,24,25,26,27,28,29,31,32,34,35,36,38,39,41},
	{2,3,5,6,7,8,9,13,14,15,16,17,18,19,20,21,22,24,25,27,28,30,31,32,33,34,35,36,37,38,39,40,41},
	{2,3,4,5,6,7,8,9,10,11,12,13,14,15,16,17,18,19,20,21,22,23,24,25,26,27,28,29,30,31,32,33,34,35,36,37,38,39,40,41},
	{2,3,4,5,6,7,8,9,10,11,12,13,14,15,16,17,18,19,20,21,22,23,24,25,26,27,28,29,30,31,32,33,34,35,36,37,38,39,40,41},
	{2,3,4,5,6,7,8,9,10,11,12,13,14,15,16,17,18,19,20,21,22,23,24,25,26,27,28,29,30,31,32,33,34,35,36,37,38,39,40,41},
	{2,3,4,5,6,7,8,9,10,11,12,13,14,15,16,17,18,19,20,21,22,23,24,25,26,27,28,29,30,31,32,33,34,35,36,37,38,39,40,41},
	{2,3,4,5,6,7,8,9,10,11,12,13,16,17,18,20,21,22,23,25,26,28,29,30,31,32,33,34,35,36,37,38,40,41},
	{2,3,4,5,6,7,8,9,10,11,12,13,14,15,16,17,18,19,20,21,22,23,24,25,26,27,28,29,30,31,32,33,34,35,36,37,38,39,40,41},
	{2,3,4,5,6,7,8,9,10,11,12,13,14,15,16,17,18,19,20,21,22,23,24,25,26,27,28,29,30,31,32,33,34,35,36,37,38,39,40,41},
	{2,3,4,5,6,7,8,9,10,11,12,13,14,15,16,17,18,19,20,21,22,23,24,25,26,27,28,29,30,31,32,33,34,35,36,37,38,39,40,41},
	{3,4,6,7,8,9,10,11,12,13,14,15,16,17,19,20,23,24,25,26,27,28,29,31,32,34,35,36,38,39,41},
	{2,3,5,6,7,8,9,13,14,15,16,17,18,19,20,21,22,24,25,27,28,30,31,32,33,34,35,36,37,38,39,40,41},
	{2,3,4,5,6,7,8,9,10,11,12,13,14,15,16,17,18,19,20,21,22,23,24,25,26,27,28,29,30,31,32,33,34,35,36,37,38,39,40,41},
	{2,3,4,5,6,7,8,9,10,11,12,13,14,15,16,17,18,19,20,21,22,23,24,25,26,27,28,29,30,31,32,33,34,35,36,37,38,39,40,41},
	{2,3,4,5,6,7,8,9,10,11,12,13,14,15,16,17,18,19,20,21,22,23,24,25,26,27,28,29,30,31,32,33,34,35,36,37,38,39,40,41},
	{2,3,4,5,6,7,8,9,10,11,12,13,14,15,16,17,18,19,20,21,22,23,24,25,26,27,28,29,30,31,32,33,34,35,36,37,38,39,40,41},
	{2,4,5,10,11,12,14,15,18,19,21,22,23,24,26,27,29,30,33,37,39,40},
	{2,3,4,5,6,7,8,9,10,11,12,13,14,15,16,17,18,19,20,21,22,23,24,25,26,27,28,29,30,31,32,33,34,35,36,37,38,39,40,41},
	{2,3,4,5,6,7,8,9,10,11,12,13,16,17,18,20,21,22,23,25,26,28,29,30,31,32,33,34,35,36,37,38,40,41},
	{2,3,4,5,6,7,8,9,10,11,12,13,14,15,16,17,18,19,20,21,22,23,24,25,26,27,28,29,30,31,32,33,34,35,36,37,38,39,40,41},
	{2,3,5,6,7,8,9,13,14,15,16,17,18,19,20,21,22,24,25,27,28,30,31,32,33,34,35,36,37,38,39,40,41}];
